treewidth/data/EllinghamHorton54Graph.gr
p tw 54 81
1 2
1 4
1 8
2 13
2 43
13 24
13 6
24 35
24 53
35 46
35 8
46 51
46 3
51 52
51 25
52 53
52 5
53 54
54 3
54 23
3 4
4 5
5 6
6 7
7 8
7 44
9 10
9 15
9 22
10 18
10 23
11 12
11 17
11 25
12 14
12 26
14 15
14 27
15 28
16 17
16 21
16 22
17 23
18 19
18 25
19 20
19 26
20 21
20 27
21 28
22 26
27 49
28 50
29 30
29 34
29 42
30 38
30 43
31 32
31 37
31 44
32 33
32 45
33 34
33 47
34 48
36 37
36 41
36 42
37 43
38 39
38 44
39 40
39 45
40 41
40 47
41 48
42 45
47 49
48 50
49 50
