treewidth/data/EllinghamHorton54Graph.td
c width = 6, time = 0.316308
s td 39 7 54
b 1 14 20 27 49
b 2 2 14 20 28 43 44 49
b 3 2 14 20 23 28 44 51
b 4 2 4 23 35 44 51 53
b 5 2 4 6 35 44 51 53
b 6 2 4 6 8 35 44
b 7 1 2 4 8
b 8 6 7 8 44
b 9 4 5 6 51 52 53
b 10 2 6 13 24 35 53
b 11 3 4 23 35 51 53
b 12 3 35 46 51
b 13 3 23 53 54
b 14 11 14 18 20 23 28 51
b 15 11 14 18 20 22 23 28
b 16 9 14 18 22 23 28
b 17 9 10 18 23
b 18 9 14 15 28
b 19 11 14 18 20 22 26
b 20 11 12 14 26
b 21 18 19 20 26
b 22 11 16 20 22 23 28
b 23 11 16 17 23
b 24 16 20 21 28
b 25 11 18 25 51
b 26 28 34 41 43 44 49
b 27 32 34 39 41 43 44 49
b 28 32 34 39 41 42 43 44
b 29 30 34 39 42 43 44
b 30 29 30 34 42
b 31 30 38 39 44
b 32 32 37 41 42 43 44
b 33 31 32 37 44
b 34 36 37 41 42
b 35 32 39 42 45
b 36 32 34 39 41 47 49
b 37 32 33 34 47
b 38 39 40 41 47
b 39 28 34 41 48 49 50
6 7
6 8
5 6
5 9
5 10
4 5
11 12
11 13
4 11
3 4
16 17
16 18
15 16
19 20
19 21
15 19
22 23
22 24
15 22
14 15
14 25
3 14
2 3
29 30
29 31
28 29
32 33
32 34
28 32
28 35
27 28
36 37
36 38
27 36
26 27
26 39
2 26
1 2
